100 5
25 200
10
30
10
10
10
20
20
20
10
10
10
20
30
10
40
40
20
20
10
10
20
20
10
10
40
10
10
20
10
10
20
30
40
20
10
10
20
30
20
10
10
20
10
10
10
30
10
10
10
10
10
10
20
40
10
30
40
30
10
20
10
20
50
10
10
10
10
10
10
30
20
10
10
50
20
10
10
20
10
10
30
20
10
20
30
10
20
30
10
10
10
20
40
10
30
10
30
20
10
20
40 50 0 1236 0 0
45 68 890 989 90 2
45 70 816 879 90 3
42 66 55 156 90 1
42 68 703 806 90 3
42 65 15 60 90 3
40 69 559 764 90 2
40 66 172 223 90 1
38 68 250 329 90 3
38 70 489 650 90 2
35 66 361 406 90 1
35 69 450 503 90 2
25 85 647 726 90 3
22 75 30 95 90 2
22 85 571 616 90 2
20 80 392 421 90 1
20 85 478 525 90 1
18 75 105 142 90 2
15 75 172 261 90 1
15 80 274 349 90 1
30 50 10 77 90 3
30 52 918 961 90 3
28 52 806 889 90 2
28 55 739 770 90 3
25 50 55 154 90 3
25 52 172 221 90 3
25 55 612 711 90 2
23 52 264 313 90 1
23 55 553 586 90 3
20 50 365 398 90 3
20 55 452 501 90 1
10 35 204 233 90 2
10 40 31 189 90 2
8 40 42 203 90 3
8 45 715 852 90 1
5 35 251 376 90 2
5 45 648 733 90 3
2 40 365 452 90 1
0 40 474 527 90 1
0 45 541 650 90 2
35 30 240 345 90 3
35 32 123 278 90 1
33 32 19 225 90 1
33 35 16 153 90 3
32 30 338 433 90 2
30 30 513 628 90 1
30 32 415 542 90 2
30 35 872 1127 90 3
28 30 599 726 90 1
28 35 917 1126 90 1
26 32 779 916 90 2
25 30 695 816 90 2
25 35 857 1024 90 1
44 5 221 412 90 1
42 10 96 347 90 1
42 15 35 233 90 3
40 5 347 474 90 2
40 15 35 172 90 3
38 5 403 602 90 1
38 15 521 870 90 3
35 5 487 704 90 1
50 30 422 719 90 3
50 35 217 362 90 1
50 40 142 247 90 3
48 30 567 758 90 2
48 40 34 171 90 3
47 35 794 907 90 1
47 40 12 226 90 3
45 30 716 795 90 1
45 35 873 1012 90 1
95 30 266 577 90 1
95 35 181 472 90 1
53 30 402 553 90 2
92 30 345 684 90 2
53 35 294 471 90 3
45 65 951 1114 90 1
90 35 153 310 90 2
88 30 450 767 90 3
88 35 50 237 90 1
87 30 567 832 90 2
85 25 713 876 90 3
85 35 47 331 90 1
75 55 311 478 90 1
72 55 127 476 90 3
70 58 349 632 90 3
68 60 476 691 90 2
66 55 67 344 90 1
65 55 25 256 90 2
65 60 546 807 90 3
63 58 630 909 90 1
60 55 20 293 90 2
60 60 769 956 90 1
67 85 229 580 90 2
65 85 442 551 90 1
65 82 227 394 90 3
62 80 163 272 90 2
60 80 36 291 90 3
60 85 469 714 90 2
58 75 30 227 90 1
55 80 595 968 90 1
55 85 493 880 90 1
93 8 0 1236 45 4
20 35 0 1236 45 4
58 82 0 1236 45 4
26 59 0 1236 45 4
28 22 0 1236 45 4
0 0 1 0 0
0 0 1 0 0
0 0 0 0 0
0 0 0 1 0
0 0 0 1 0
0 0 0 1 0
0 0 0 0 0
0 0 0 1 0
0 0 0 1 0
0 0 0 0 0
0 0 0 1 0
0 0 0 1 0
0 0 0 1 0
0 0 0 1 0
0 0 0 0 0
0 0 0 0 0
0 0 0 1 0
0 0 0 0 0
0 0 0 0 0
0 0 0 1 0
0 0 0 1 0
0 0 0 1 0
0 0 0 1 0
0 0 0 1 0
0 0 0 1 0
0 0 0 1 0
0 0 0 0 0
0 0 0 1 0
0 0 0 1 0
0 0 0 0 0
0 1 0 0 0
0 1 0 0 0
0 1 0 0 0
0 0 0 0 0
0 1 0 0 0
0 1 0 0 0
0 0 0 0 0
0 0 0 0 0
0 1 0 0 0
0 0 0 0 1
0 0 0 0 0
0 0 0 0 0
0 1 0 0 0
0 0 0 0 1
0 0 0 0 0
0 0 0 0 1
0 1 0 0 0
0 0 0 0 0
0 0 0 0 0
0 1 0 0 0
0 1 0 0 0
0 0 0 0 0
0 0 0 0 0
0 0 0 0 0
0 0 0 0 1
0 0 0 0 1
0 0 0 0 1
0 0 0 0 0
0 0 0 0 1
0 0 0 0 0
0 0 0 0 1
0 0 0 0 0
0 0 0 0 1
0 0 0 0 1
0 0 0 0 1
0 0 0 0 0
0 0 0 0 1
0 0 0 0 0
0 0 0 0 0
0 0 0 0 0
0 0 0 0 0
0 0 0 0 1
1 0 0 0 0
0 0 0 0 1
0 0 0 0 0
1 0 0 0 0
1 0 0 0 0
0 0 0 0 0
1 0 0 0 0
1 0 0 0 0
0 0 0 0 0
0 0 0 0 0
0 0 1 0 0
0 0 1 0 0
0 0 1 0 0
0 0 0 0 0
0 0 1 0 0
0 0 1 0 0
0 0 0 0 0
0 0 1 0 0
0 0 0 0 0
0 0 1 0 0
0 0 0 0 0
0 0 1 0 0
0 0 1 0 0
0 0 1 0 0
0 0 1 0 0
0 0 0 0 0
0 0 0 0 0
0 0 0 0 0
